% demand
num_movements = 50;
loading_factor = [800, 1300, 1300, 1000, 1850, 1000, 1700, 1600, 850, 1650, 1500, 1750, 1200, 1100, 1400, 1350, 1250, 800, 1450, 1700, 1250, 1150, 1350, 850, 1600, 1900, 1200, 900, 950, 1300, 1400, 1850, 1700, 1550, 1600, 1700, 1200, 1600, 2000, 1550, 1100, 1500, 800, 1850, 1250, 1200, 1550, 1950, 1150, 800];
pickup_time = [0, 0, 0, 0, 1, 1, 1, 1, 1, 1, 1, 2, 2, 2, 2, 2, 3, 4, 4, 4, 5, 5, 6, 6, 6, 6, 6, 6, 7, 7, 7, 8, 8, 8, 8, 9, 9, 10, 10, 10, 10, 10, 10, 10, 11, 11, 11, 11, 11, 12];
delivery_time = [2, 1, 1, 1, 6, 2, 2, 2, 3, 2, 3, 6, 5, 6, 4, 3, 4, 6, 5, 6, 7, 6, 7, 7, 8, 8, 7, 8, 10, 8, 8, 9, 9, 10, 9, 10, 10, 11, 13, 11, 13, 11, 13, 11, 13, 12, 13, 13, 13, 13];

% transporter definition
total_capacity = 11000;
num_decks = 4;
capacity = [3000, 3000, 1000, 4000];

% ways out of decks
num_ways_out = 2;
paths_out = array3d(decks, ways_out, decks, [
% ways out of deck d1
2, 4, 0, 0, 3, 4, 0, 0, 

% ways out of deck d2
4, 0, 0, 0, 0, 0, 0, 0,	

% ways out of deck d3
4, 0, 0, 0, 0, 0, 0, 0,	

% ways out of deck d4
0, 0, 0, 0,	0, 0, 0, 0,	

]);

